(set-logic QF_NRA_ODE)
(declare-fun yy () Real [2.000000, 2.000000])
(declare-fun xx () Real [1.000000, 2.240000])
(declare-fun vy () Real [-2.000000, 0.000000])
(declare-fun vx () Real [-0.300000, 2.000000])
(declare-fun yy_0_0 () Real [2.000000, 2.000000])
(declare-fun yy_0_t () Real [2.000000, 2.000000])
(declare-fun yy_1_0 () Real [2.000000, 2.000000])
(declare-fun yy_1_t () Real [2.000000, 2.000000])
(declare-fun yy_2_0 () Real [2.000000, 2.000000])
(declare-fun yy_2_t () Real [2.000000, 2.000000])
(declare-fun yy_3_0 () Real [2.000000, 2.000000])
(declare-fun yy_3_t () Real [2.000000, 2.000000])
(declare-fun xx_0_0 () Real [1.000000, 2.240000])
(declare-fun xx_0_t () Real [1.000000, 2.240000])
(declare-fun xx_1_0 () Real [1.000000, 2.240000])
(declare-fun xx_1_t () Real [1.000000, 2.240000])
(declare-fun xx_2_0 () Real [1.000000, 2.240000])
(declare-fun xx_2_t () Real [1.000000, 2.240000])
(declare-fun xx_3_0 () Real [1.000000, 2.240000])
(declare-fun xx_3_t () Real [1.000000, 2.240000])
(declare-fun vy_0_0 () Real [-2.000000, 0.000000])
(declare-fun vy_0_t () Real [-2.000000, 0.000000])
(declare-fun vy_1_0 () Real [-2.000000, 0.000000])
(declare-fun vy_1_t () Real [-2.000000, 0.000000])
(declare-fun vy_2_0 () Real [-2.000000, 0.000000])
(declare-fun vy_2_t () Real [-2.000000, 0.000000])
(declare-fun vy_3_0 () Real [-2.000000, 0.000000])
(declare-fun vy_3_t () Real [-2.000000, 0.000000])
(declare-fun vx_0_0 () Real [-0.300000, 2.000000])
(declare-fun vx_0_t () Real [-0.300000, 2.000000])
(declare-fun vx_1_0 () Real [-0.300000, 2.000000])
(declare-fun vx_1_t () Real [-0.300000, 2.000000])
(declare-fun vx_2_0 () Real [-0.300000, 2.000000])
(declare-fun vx_2_t () Real [-0.300000, 2.000000])
(declare-fun vx_3_0 () Real [-0.300000, 2.000000])
(declare-fun vx_3_t () Real [-0.300000, 2.000000])
(declare-fun time_0 () Real [0.000000, 4.000000])
(declare-fun time_1 () Real [0.000000, 4.000000])
(declare-fun time_2 () Real [0.000000, 4.000000])
(declare-fun time_3 () Real [0.000000, 4.000000])
(declare-fun mode_0 () Real [1.000000, 4.000000])
(declare-fun mode_1 () Real [1.000000, 4.000000])
(declare-fun mode_2 () Real [1.000000, 4.000000])
(declare-fun mode_3 () Real [1.000000, 4.000000])
(define-ode flow_1 ((= d/dt[vx] (+ (- 0 (* (/ 6 5) vx)) (* (/ 1 10) (+ vy 1)))) (= d/dt[vy] (- (* (/ 1 10) vx) (* (/ 6 5) (+ vy 1)))) (= d/dt[xx] vx) (= d/dt[yy] vy)))
(define-ode flow_2 ((= d/dt[vx] (+ (- 0 (* (/ 6 5) (- vx (/ 707 1000)))) (* (/ 1 10) (+ vy (/ 707 1000))))) (= d/dt[vy] (- (* (/ 1 10) (- vx (/ 707 1000))) (* (/ 6 5) (+ vy (/ 707 1000))))) (= d/dt[xx] vx) (= d/dt[yy] vy)))
(define-ode flow_3 ((= d/dt[vx] (+ (- 0 (* (/ 6 5) (- vx 1))) (* (/ 1 10) vy))) (= d/dt[vy] (- (* (/ 1 10) (- vx 1)) (* (/ 6 5) vy))) (= d/dt[xx] vx) (= d/dt[yy] vy)))
(define-ode flow_4 ((= d/dt[vx] 0) (= d/dt[vy] 0) (= d/dt[xx] 0) (= d/dt[yy] 0)))
(assert (and (or (= mode_3 4) (= mode_3 3) (= mode_3 2)) (and (>= (* 10 vy_0_0) -3) (>= xx_0_0 2) (> (- 0 vy_0_0) 0) (>= (- (* -5 xx_0_0) (* 4 vx_0_0)) -10) (>= (* 10 vx_0_0) -3) (= yy_0_0 2)) (= mode_0 1) (= [vx_0_t vy_0_t xx_0_t yy_0_t] (integral 0. time_0 [vx_0_0 vy_0_0 xx_0_0 yy_0_0] flow_1)) (= mode_0 1) (forall_t 1 [0 time_0] (>= (- 0 xx_0_t) -3)) (>= (- 0 xx_0_t) -3) (>= (- 0 xx_0_0) -3) (forall_t 1 [0 time_0] (>= (- 0 yy_0_t) -2)) (>= (- 0 yy_0_t) -2) (>= (- 0 yy_0_0) -2) (forall_t 1 [0 time_0] (>= (- 0 vx_0_t) -2)) (>= (- 0 vx_0_t) -2) (>= (- 0 vx_0_0) -2) (forall_t 1 [0 time_0] (>= (- 0 vy_0_t) 0)) (>= (- 0 vy_0_t) 0) (>= (- 0 vy_0_0) 0) (forall_t 1 [0 time_0] (>= xx_0_t 2)) (>= xx_0_t 2) (>= xx_0_0 2) (forall_t 1 [0 time_0] (>= vy_0_t -2)) (>= vy_0_t -2) (>= vy_0_0 -2) (forall_t 1 [0 time_0] (>= vx_0_t -2)) (>= vx_0_t -2) (>= vx_0_0 -2) (forall_t 1 [0 time_0] (>= yy_0_t 1)) (>= yy_0_t 1) (>= yy_0_0 1) (= mode_1 2) (>= (+ (* 120 vx_0_t) (* 10 vy_0_t)) -39) (> (- 0 vy_0_t) 0) (>= (* 10 vx_0_t) -3) (>= (- 0 vx_0_t) 0) (>= (* 20 vy_0_t) -37) (= yy_0_t 2) (= xx_1_0 2) (= yy_1_0 2) (= (- vx_0_t vx_1_0) 0) (= (- vy_0_t vy_1_0) 0) (= xx_0_t 2) (= [vx_1_t vy_1_t xx_1_t yy_1_t] (integral 0. time_1 [vx_1_0 vy_1_0 xx_1_0 yy_1_0] flow_2)) (= mode_1 2) (forall_t 2 [0 time_1] (>= (- 0 xx_1_t) -2)) (>= (- 0 xx_1_t) -2) (>= (- 0 xx_1_0) -2) (forall_t 2 [0 time_1] (>= (- 0 yy_1_t) -2)) (>= (- 0 yy_1_t) -2) (>= (- 0 yy_1_0) -2) (forall_t 2 [0 time_1] (>= (- 0 vx_1_t) 0)) (>= (- 0 vx_1_t) 0) (>= (- 0 vx_1_0) 0) (forall_t 2 [0 time_1] (>= (- 0 vy_1_t) 0)) (>= (- 0 vy_1_t) 0) (>= (- 0 vy_1_0) 0) (forall_t 2 [0 time_1] (>= xx_1_t 1)) (>= xx_1_t 1) (>= xx_1_0 1) (forall_t 2 [0 time_1] (>= vy_1_t -2)) (>= vy_1_t -2) (>= vy_1_0 -2) (forall_t 2 [0 time_1] (>= vx_1_t -2)) (>= vx_1_t -2) (>= vx_1_0 -2) (forall_t 2 [0 time_1] (>= yy_1_t 1)) (>= yy_1_t 1) (>= yy_1_0 1) (= mode_2 3) (> (- (* 11191 xx_1_t) (* 20000 vy_1_t)) 22382) (>= (+ (* 33191 xx_1_t) (* 20000 vx_1_t)) 60382) (>= (+ (+ (* 387101 xx_1_t) (* 240000 vx_1_t)) (* 20000 vy_1_t)) 696202) (>= (+ (* -3 xx_1_t) (* 20 vy_1_t)) -43) (>= (- 0 xx_1_t) -2) (>= (- 0 vx_1_t) 0) (= (- xx_1_t xx_2_0) 0) (= yy_2_0 2) (= (- vx_1_t vx_2_0) 0) (= (- vy_1_t vy_2_0) 0) (= yy_1_t 2) (= [vx_2_t vy_2_t xx_2_t yy_2_t] (integral 0. time_2 [vx_2_0 vy_2_0 xx_2_0 yy_2_0] flow_3)) (= mode_2 3) (forall_t 3 [0 time_2] (>= (- 0 xx_2_t) -2)) (>= (- 0 xx_2_t) -2) (>= (- 0 xx_2_0) -2) (forall_t 3 [0 time_2] (>= (- 0 yy_2_t) -3)) (>= (- 0 yy_2_t) -3) (>= (- 0 yy_2_0) -3) (forall_t 3 [0 time_2] (>= (- 0 vx_2_t) -2)) (>= (- 0 vx_2_t) -2) (>= (- 0 vx_2_0) -2) (forall_t 3 [0 time_2] (>= (- 0 vy_2_t) 0)) (>= (- 0 vy_2_t) 0) (>= (- 0 vy_2_0) 0) (forall_t 3 [0 time_2] (>= xx_2_t 1)) (>= xx_2_t 1) (>= xx_2_0 1) (forall_t 3 [0 time_2] (>= vy_2_t -2)) (>= vy_2_t -2) (>= vy_2_0 -2) (forall_t 3 [0 time_2] (>= vx_2_t -2)) (>= vx_2_t -2) (>= vx_2_0 -2) (forall_t 3 [0 time_2] (>= yy_2_t 2)) (>= yy_2_t 2) (>= yy_2_0 2) (= mode_3 4) (= (- vy_2_t vy_3_0) 0) (= (- vx_2_t vx_3_0) 0) (= (- yy_2_t yy_3_0) 0) (= (- xx_2_t xx_3_0) 0) (= yy_3_t (+ yy_3_0 (* 0 time_3))) (= xx_3_t (+ xx_3_0 (* 0 time_3))) (= vy_3_t (+ vy_3_0 (* 0 time_3))) (= vx_3_t (+ vx_3_0 (* 0 time_3))) (= [vx_3_t vy_3_t xx_3_t yy_3_t] (integral 0. time_3 [vx_3_0 vy_3_0 xx_3_0 yy_3_0] flow_4)) (= mode_3 4) (forall_t 4 [0 time_3] (= yy_3_t 2)) (= yy_3_t 2) (= yy_3_0 2) (forall_t 4 [0 time_3] (= xx_3_t 1)) (= xx_3_t 1) (= xx_3_0 1) (forall_t 4 [0 time_3] (>= (- 0 vx_3_t) -2)) (>= (- 0 vx_3_t) -2) (>= (- 0 vx_3_0) -2) (forall_t 4 [0 time_3] (>= vy_3_t -2)) (>= vy_3_t -2) (>= vy_3_0 -2) (forall_t 4 [0 time_3] (> (* -20 vy_3_t) 3)) (> (* -20 vy_3_t) 3) (> (* -20 vy_3_0) 3) (forall_t 4 [0 time_3] (>= (* 165955 vx_3_t) 244719)) (>= (* 165955 vx_3_t) 244719) (>= (* 165955 vx_3_0) 244719) (forall_t 4 [0 time_3] (> (- (* 163820 vx_3_t) (* 56180 vy_3_t)) 254157)) (> (- (* 163820 vx_3_t) (* 56180 vy_3_t)) 254157) (> (- (* 163820 vx_3_0) (* 56180 vy_3_0)) 254157) (forall_t 4 [0 time_3] (> (- (- 0 vx_3_t) (* 12 vy_3_t)) 0)) (> (- (- 0 vx_3_t) (* 12 vy_3_t)) 0) (> (- (- 0 vx_3_0) (* 12 vy_3_0)) 0) (forall_t 4 [0 time_3] (>= (+ (* 1.95050e+06 vx_3_t) (* 180000 vy_3_t)) 2.78191e+06)) (>= (+ (* 1.95050e+06 vx_3_t) (* 180000 vy_3_t)) 2.78191e+06) (>= (+ (* 1.95050e+06 vx_3_0) (* 180000 vy_3_0)) 2.78191e+06)))
(check-sat)
(exit)
